c This is the baseline generate by sty
p cnf 922 618
 -1 3 0
 -3 1 0
 -2 4 0
 -4 2 0
 -5 -1 7 0
 -7 5 0
 -7 1 0
 -5 -2 8 0
 -8 5 0
 -8 2 0
 -6 -1 9 0
 -9 6 0
 -9 1 0
 -6 -2 10 0
 -10 6 0
 -10 2 0
 -11 -6 0
 -12 -5 0
 -17 -11 0
 -18 -12 0
 -23 -17 0
 -24 -18 0
 -29 -24 0
 -30 -23 0
 -35 -29 37 0
 -37 35 0
 -37 29 0
 -35 -30 38 0
 -38 35 0
 -38 30 0
 -36 -29 39 0
 -39 36 0
 -39 29 0
 -36 -30 40 0
 -40 36 0
 -40 30 0
 -41 -35 0
 -42 -36 0
 -47 -42 0
 -48 -41 0
 -53 -47 0
 -54 -48 0
 -59 -1 0
 -60 -2 0
 -65 -60 -5 0
 -66 -59 -5 0
 -66 -59 -6 0
 -66 -60 -6 0
 -75 -65 -11 0
 -75 -66 -12 0
 -76 -66 -11 0
 -76 -65 -12 0
 -85 -76 -18 0
 -86 -75 -17 0
 -86 -76 -17 0
 -86 -75 -18 0
 -95 -86 -23 0
 -95 -85 -24 0
 -95 -86 -24 0
 -96 -85 -23 0
 -105 -95 -30 0
 -106 -95 -29 0
 -106 -96 -29 0
 -106 -96 -30 0
 -115 -105 -35 0
 -115 -105 -36 0
 -116 -106 -35 0
 -116 -106 -36 0
 -125 -115 -41 0
 -125 -116 -41 0
 -126 -115 -42 0
 -126 -116 -42 0
 -135 -125 -48 0
 -136 -125 -47 0
 -136 -126 -47 0
 -136 -126 -48 0
 -145 -136 -53 0
 -145 -135 -54 0
 -145 -136 -54 0
 -146 -135 -53 0
 -155 -59 157 0
 -157 155 0
 -157 59 0
 -155 -60 158 0
 -158 155 0
 -158 60 0
 -156 -59 159 0
 -159 156 0
 -159 59 0
 -156 -60 160 0
 -160 156 0
 -160 60 0
 -161 -155 -65 0
 -161 -156 -65 0
 -162 -155 -66 0
 -162 -156 -66 0
 -171 -162 -75 0
 -172 -161 -75 0
 -172 -161 -76 0
 -172 -162 -76 0
 -181 -172 -85 0
 -181 -171 -86 0
 -182 -171 -85 0
 -182 -172 -86 0
 -191 -182 -95 0
 -192 -181 -95 0
 -192 -181 -96 0
 -192 -182 -96 0
 -201 -191 -105 0
 -201 -192 -105 0
 -202 -191 -106 0
 -202 -192 -106 0
 -211 -201 -115 0
 -211 -201 -116 0
 -211 -202 -116 0
 -212 -202 -115 0
 -221 -211 -125 0
 -221 -212 -125 0
 -221 -211 -126 0
 -222 -212 -126 0
 -231 -221 -135 0
 -231 -222 -135 0
 -232 -221 -136 0
 -232 -222 -136 0
 -241 -231 -146 0
 -242 -231 -145 0
 -242 -232 -145 0
 -242 -232 -146 0
 -251 -156 0
 -252 -155 0
 -257 -252 -161 0
 -257 -251 -162 0
 -258 -251 -161 0
 -258 -252 -162 0
 -267 -257 -171 0
 -267 -258 -171 0
 -267 -258 -172 0
 -268 -257 -172 0
 -277 -268 -181 0
 -277 -267 -182 0
 -277 -268 -182 0
 -278 -267 -181 0
 -287 -277 -191 0
 -287 -278 -191 0
 -288 -277 -192 0
 -288 -278 -192 0
 -297 -287 -202 0
 -298 -287 -201 0
 -298 -288 -201 0
 -298 -288 -202 0
 -307 -298 -211 0
 -308 -297 -211 0
 -308 -297 -212 0
 -308 -298 -212 0
 -317 -307 -221 0
 -317 -308 -221 0
 -317 -308 -222 0
 -318 -307 -222 0
 -327 -317 -231 0
 -327 -318 -231 0
 -327 -317 -232 0
 -328 -318 -232 0
 -337 -327 -241 0
 -337 -328 -241 0
 -337 -327 -242 0
 -338 -328 -242 0
 -347 -251 0
 -348 -252 0
 -353 -348 -258 0
 -354 -347 -257 0
 -354 -348 -257 0
 -354 -347 -258 0
 -363 -353 -267 0
 -363 -353 -268 0
 -363 -354 -268 0
 -364 -354 -267 0
 -373 -364 -277 0
 -373 -364 -278 0
 -374 -363 -277 0
 -374 -363 -278 0
 -383 -373 -287 385 0
 -385 383 0
 -385 373 0
 -385 287 0
 -383 -374 -287 386 0
 -386 383 0
 -386 374 0
 -386 287 0
 -383 -373 -288 387 0
 -387 383 0
 -387 373 0
 -387 288 0
 -383 -374 -288 388 0
 -388 383 0
 -388 374 0
 -388 288 0
 -384 -373 -287 389 0
 -389 384 0
 -389 373 0
 -389 287 0
 -384 -374 -287 390 0
 -390 384 0
 -390 374 0
 -390 287 0
 -384 -373 -288 391 0
 -391 384 0
 -391 373 0
 -391 288 0
 -384 -374 -288 392 0
 -392 384 0
 -392 374 0
 -392 288 0
 -393 -383 -297 0
 -393 -384 -297 0
 -394 -383 -298 0
 -394 -384 -298 0
 -403 -393 -307 0
 -403 -394 -307 0
 -403 -393 -308 0
 -404 -394 -308 0
 -413 -403 -317 0
 -413 -404 -317 0
 -414 -403 -318 0
 -414 -404 -318 0
 -423 -413 -328 0
 -423 -414 -328 0
 -424 -413 -327 0
 -424 -414 -327 0
 -433 -423 -337 0
 -433 -424 -338 0
 -434 -424 -337 0
 -434 -423 -338 0
 -443 -347 0
 -444 -348 0
 -449 -443 -353 451 0
 -451 449 0
 -451 443 0
 -451 353 0
 -449 -444 -353 452 0
 -452 449 0
 -452 444 0
 -452 353 0
 -449 -443 -354 453 0
 -453 449 0
 -453 443 0
 -453 354 0
 -449 -444 -354 454 0
 -454 449 0
 -454 444 0
 -454 354 0
 -450 -443 -353 455 0
 -455 450 0
 -455 443 0
 -455 353 0
 -450 -444 -353 456 0
 -456 450 0
 -456 444 0
 -456 353 0
 -450 -443 -354 457 0
 -457 450 0
 -457 443 0
 -457 354 0
 -450 -444 -354 458 0
 -458 450 0
 -458 444 0
 -458 354 0
 -459 -450 -363 0
 -460 -449 -363 0
 -460 -449 -364 0
 -460 -450 -364 0
 -469 -460 -374 0
 -470 -459 -373 0
 -470 -460 -373 0
 -470 -459 -374 0
 -479 -469 -383 481 0
 -481 479 0
 -481 469 0
 -481 383 0
 -479 -470 -383 482 0
 -482 479 0
 -482 470 0
 -482 383 0
 -479 -469 -384 483 0
 -483 479 0
 -483 469 0
 -483 384 0
 -479 -470 -384 484 0
 -484 479 0
 -484 470 0
 -484 384 0
 -480 -469 -383 485 0
 -485 480 0
 -485 469 0
 -485 383 0
 -480 -470 -383 486 0
 -486 480 0
 -486 470 0
 -486 383 0
 -480 -469 -384 487 0
 -487 480 0
 -487 469 0
 -487 384 0
 -480 -470 -384 488 0
 -488 480 0
 -488 470 0
 -488 384 0
 -489 -479 -393 0
 -489 -479 -394 0
 -489 -480 -394 0
 -490 -480 -393 0
 -499 -489 -403 0
 -500 -490 -403 0
 -500 -489 -404 0
 -500 -490 -404 0
 -509 -500 -414 0
 -510 -499 -413 0
 -510 -500 -413 0
 -510 -499 -414 0
 -519 -509 -423 521 0
 -521 519 0
 -521 509 0
 -521 423 0
 -519 -510 -423 522 0
 -522 519 0
 -522 510 0
 -522 423 0
 -519 -509 -424 523 0
 -523 519 0
 -523 509 0
 -523 424 0
 -519 -510 -424 524 0
 -524 519 0
 -524 510 0
 -524 424 0
 -520 -509 -423 525 0
 -525 520 0
 -525 509 0
 -525 423 0
 -520 -510 -423 526 0
 -526 520 0
 -526 510 0
 -526 423 0
 -520 -509 -424 527 0
 -527 520 0
 -527 509 0
 -527 424 0
 -520 -510 -424 528 0
 -528 520 0
 -528 510 0
 -528 424 0
 -529 -519 -433 531 0
 -531 529 0
 -531 519 0
 -531 433 0
 -529 -520 -433 532 0
 -532 529 0
 -532 520 0
 -532 433 0
 -529 -519 -434 533 0
 -533 529 0
 -533 519 0
 -533 434 0
 -529 -520 -434 534 0
 -534 529 0
 -534 520 0
 -534 434 0
 -530 -519 -433 535 0
 -535 530 0
 -535 519 0
 -535 433 0
 -530 -520 -433 536 0
 -536 530 0
 -536 520 0
 -536 433 0
 -530 -519 -434 537 0
 -537 530 0
 -537 519 0
 -537 434 0
 -530 -520 -434 538 0
 -538 530 0
 -538 520 0
 -538 434 0
 -539 -443 0
 -540 -444 0
 -545 -539 -449 0
 -545 -540 -449 0
 -545 -540 -450 0
 -546 -539 -450 0
 -555 -546 -459 0
 -555 -545 -460 0
 -555 -546 -460 0
 -556 -545 -459 0
 -565 -555 -470 0
 -566 -555 -469 0
 -566 -556 -469 0
 -566 -556 -470 0
 -575 -566 -479 0
 -576 -565 -479 0
 -576 -565 -480 0
 -576 -566 -480 0
 -585 -575 -489 0
 -585 -576 -490 0
 -586 -576 -489 0
 -586 -575 -490 0
 -595 -586 -499 0
 -596 -585 -499 0
 -596 -585 -500 0
 -596 -586 -500 0
 -605 -595 -509 607 0
 -607 605 0
 -607 595 0
 -607 509 0
 -605 -596 -509 608 0
 -608 605 0
 -608 596 0
 -608 509 0
 -605 -595 -510 609 0
 -609 605 0
 -609 595 0
 -609 510 0
 -605 -596 -510 610 0
 -610 605 0
 -610 596 0
 -610 510 0
 -606 -595 -509 611 0
 -611 606 0
 -611 595 0
 -611 509 0
 -606 -596 -509 612 0
 -612 606 0
 -612 596 0
 -612 509 0
 -606 -595 -510 613 0
 -613 606 0
 -613 595 0
 -613 510 0
 -606 -596 -510 614 0
 -614 606 0
 -614 596 0
 -614 510 0
 -615 -605 -519 0
 -615 -606 -519 0
 -616 -605 -520 0
 -616 -606 -520 0
 -625 -616 -529 0
 -625 -615 -530 0
 -626 -615 -529 0
 -626 -616 -530 0
 -635 -540 0
 -636 -539 0
 -641 -636 -545 0
 -642 -635 -545 0
 -642 -635 -546 0
 -642 -636 -546 0
 -651 -642 -555 0
 -651 -642 -556 0
 -652 -641 -555 0
 -652 -641 -556 0
 -661 -652 -566 0
 -662 -651 -565 0
 -662 -652 -565 0
 -662 -651 -566 0
 -671 -661 -576 0
 -671 -662 -576 0
 -672 -661 -575 0
 -672 -662 -575 0
 -681 -671 -585 0
 -681 -671 -586 0
 -682 -672 -585 0
 -682 -672 -586 0
 -691 -682 -596 0
 -692 -681 -595 0
 -692 -682 -595 0
 -692 -681 -596 0
 -701 -692 -605 0
 -701 -691 -606 0
 -702 -691 -605 0
 -702 -692 -606 0
 -711 -702 -615 0
 -711 -701 -616 0
 -711 -702 -616 0
 -712 -701 -615 0
 -721 -711 -625 0
 -722 -712 -625 0
 -722 -711 -626 0
 -722 -712 -626 0
 -731 -636 0
 -732 -635 0
 -737 -731 -641 739 0
 -739 737 0
 -739 731 0
 -739 641 0
 -737 -732 -641 740 0
 -740 737 0
 -740 732 0
 -740 641 0
 -737 -731 -642 741 0
 -741 737 0
 -741 731 0
 -741 642 0
 -737 -732 -642 742 0
 -742 737 0
 -742 732 0
 -742 642 0
 -738 -731 -641 743 0
 -743 738 0
 -743 731 0
 -743 641 0
 -738 -732 -641 744 0
 -744 738 0
 -744 732 0
 -744 641 0
 -738 -731 -642 745 0
 -745 738 0
 -745 731 0
 -745 642 0
 -738 -732 -642 746 0
 -746 738 0
 -746 732 0
 -746 642 0
 -747 -737 -651 0
 -747 -738 -651 0
 -747 -738 -652 0
 -748 -737 -652 0
 -757 -747 -661 0
 -757 -747 -662 0
 -757 -748 -662 0
 -758 -748 -661 0
 -767 -757 -671 0
 -767 -758 -671 0
 -768 -757 -672 0
 -768 -758 -672 0
 -777 -767 -681 779 0
 -779 777 0
 -779 767 0
 -779 681 0
 -777 -768 -681 780 0
 -780 777 0
 -780 768 0
 -780 681 0
 -777 -767 -682 781 0
 -781 777 0
 -781 767 0
 -781 682 0
 -777 -768 -682 782 0
 -782 777 0
 -782 768 0
 -782 682 0
 -778 -767 -681 783 0
 -783 778 0
 -783 767 0
 -783 681 0
 -778 -768 -681 784 0
 -784 778 0
 -784 768 0
 -784 681 0
 -778 -767 -682 785 0
 -785 778 0
 -785 767 0
 -785 682 0
 -778 -768 -682 786 0
 -786 778 0
 -786 768 0
 -786 682 0
 -787 -778 -691 0
 -787 -778 -692 0
 -788 -777 -691 0
 -788 -777 -692 0
 -797 -787 -701 0
 -798 -788 -701 0
 -798 -787 -702 0
 -798 -788 -702 0
 -807 -798 -712 0
 -808 -797 -711 0
 -808 -798 -711 0
 -808 -797 -712 0
 -817 -808 -721 0
 -817 -807 -722 0
 -818 -807 -721 0
 -818 -808 -722 0
 -827 -731 0
 -828 -732 0
 -833 -827 -737 0
 -833 -828 -737 0
 -833 -827 -738 0
 -834 -828 -738 0
 -843 -834 -748 0
 -844 -833 -747 0
 -844 -834 -747 0
 -844 -833 -748 0
 -853 -843 -757 0
 -853 -844 -758 0
 -854 -844 -757 0
 -854 -843 -758 0
 -863 -853 -767 0
 -864 -854 -767 0
 -864 -853 -768 0
 -864 -854 -768 0
 -873 -863 -777 0
 -874 -864 -777 0
 -874 -863 -778 0
 -874 -864 -778 0
 -883 -874 -787 0
 -883 -874 -788 0
 -884 -873 -787 0
 -884 -873 -788 0
 -893 -884 -797 0
 -893 -883 -798 0
 -894 -883 -797 0
 -894 -884 -798 0
 -903 -893 -807 0
 -903 -893 -808 0
 -904 -894 -807 0
 -904 -894 -808 0
 -913 -903 -817 0
 -913 -904 -817 0
 -913 -903 -818 0
 -914 -904 -818 0
